\ENCODING=ISO-8859-1
\Problem name: 

Minimize
 obj: 63.4601993378527 X_0_0 + 32.4368016302471 X_0_1 + 40.4551702505378 X_0_2
      + 19.3784416298112 X_0_3 + 44.4645026959709 X_0_4
      + 63.2449658075645 X_0_5 + 77.5808352623249 X_0_6
      + 68.9134507915545 X_0_7 + 62.8060259847731 X_1_0
      + 31.0668006077227 X_1_1 + 30.8386251314808 X_1_2
      + 13.4433626745692 X_1_3 + 37.5538546623379 X_1_4
      + 59.4569230619951 X_1_5 + 72.0665386986221 X_1_6
      + 68.7012641805083 X_1_7 + 63.7337971566107 X_2_0 + 32.835135145146 X_2_1
      + 21.5736135128077 X_2_2 + 13.6353951171207 X_2_3
      + 32.3031267836412 X_2_4 + 57.1867615799321 X_2_5
      + 67.5898365140796 X_2_6 + 69.9332803463415 X_2_7
      + 66.1770118696817 X_3_0 + 37.2980709956963 X_3_1 + 13.409727812301 X_3_2
      + 19.776855159504 X_3_3 + 29.608985122763 X_3_4 + 56.6173621780457 X_3_5
      + 64.3675850098479 X_3_6 + 72.5359476397738 X_3_7
      + 69.9771169740509 X_4_0 + 43.6365225470591 X_4_1
      + 9.70673992646347 X_4_2 + 28.2192133129186 X_4_3
      + 30.1644161223121 X_4_4 + 57.7990112372175 X_4_5
      + 62.5938175860843 X_4_6 + 76.3692588676884 X_4_7
      + 74.9279447202444 X_5_0 + 51.158050197403 X_5_1 + 14.4437114343925 X_5_2
      + 37.4369336351149 X_5_3 + 33.8096435946906 X_5_4
      + 60.6294128290882 X_5_5 + 62.3921950246984 X_5_6
      + 81.2592376287152 X_5_7 + 53.5835506475635 X_6_0
      + 23.0422676835419 X_6_1 + 39.2813034406956 X_6_2 + 14.964090349901 X_6_3
      + 38.5835716335334 X_6_4 + 54.4805075233335 X_6_5
      + 69.8082086863716 X_6_6 + 58.9649361909262 X_6_7
      + 52.8071671271997 X_7_0 + 21.0700284764876 X_7_1
      + 29.2817485816677 X_7_2 + 5.39666563722453 X_7_3
      + 30.3626744540069 X_7_4 + 50.03324594707 X_7_5 + 63.623784860695 X_7_6
      + 58.7168093479201 X_7_7 + 53.9072991347183 X_8_0
      + 23.5997055066372 X_8_1 + 19.2826554187954 X_8_2
      + 5.85866879077491 X_8_3 + 23.5603904891239 X_8_4
      + 47.3130605647109 X_8_5 + 58.5045810172161 X_8_6
      + 60.1536673861204 X_8_7 + 56.7749671950588 X_9_0 + 29.494848702782 X_9_1
      + 9.28551560227002 X_9_2 + 15.4765629259212 X_9_3
      + 19.7051262365913 X_9_4 + 46.6232313337461 X_9_5
      + 54.7502146114515 X_9_6 + 63.1606182680315 X_9_7
      + 61.1620544128465 X_10_0 + 37.1879832741707 X_10_1
      + 0.787908624143687 X_10_2 + 25.3914158722983 X_10_3
      + 20.5302703343137 X_10_4 + 48.0512819808171 X_10_5
      + 52.6534519286248 X_10_6 + 67.5282437206833 X_10_7
      + 66.7697304173081 X_11_0 + 45.7815039071457 X_11_1
      + 10.7247750559161 X_11_2 + 35.3542642406825 X_11_3
      + 25.5869497986767 X_11_4 + 51.4210628050413 X_11_5
      + 52.4136051040186 X_11_6 + 73.0127639526131 X_11_7
      + 43.762962651082 X_12_0 + 14.4826137143818 X_12_1
      + 40.6130619382484 X_12_2 + 16.5022422718854 X_12_3
      + 34.6452305519822 X_12_4 + 46.2204035032149 X_12_5
      + 62.6704555592187 X_12_6 + 49.037370443367 X_12_7
      + 42.8088413765194 X_13_0 + 11.079083897146 X_13_1
      + 31.0454634367084 X_13_2 + 8.80477143371706 X_13_3
      + 25.1692669738314 X_13_4 + 40.8842964963322 X_13_5
      + 55.6990664194652 X_13_6 + 48.7387289534719 X_13_7
      + 44.1587692310372 X_14_0 + 15.3540255307851 X_14_1
      + 21.8682601045442 X_14_2 + 9.09527349781193 X_14_3
      + 16.3307072718851 X_14_4 + 37.5063421303651 X_14_5
      + 49.7713371329323 X_14_6 + 50.4605162478546 X_14_7
      + 47.6171912233387 X_15_0 + 23.4253303071696 X_15_1
      + 13.8787895725816 X_15_2 + 16.9683234292608 X_15_3
      + 9.99459854121215 X_15_4 + 36.632304049841 X_15_5
      + 45.2988520825859 X_15_6 + 54.0098481760503 X_15_7
      + 52.7711748969075 X_16_0 + 32.5844456758129 X_16_1
      + 10.3450857898811 X_16_2 + 26.327248242078 X_16_3
      + 11.5365506109929 X_16_4 + 38.433393032622 X_16_5
      + 42.7409171637671 X_16_6 + 59.0581383045554 X_16_7
      + 59.1793621121418 X_17_0 + 42.1277355194888 X_17_1
      + 14.8802150522094 X_17_2 + 36.0322633205298 X_17_3
      + 19.1387564904306 X_17_4 + 42.5714188159145 X_17_5
      + 42.4450939450015 X_17_6 + 65.2584377686135 X_17_7
      + 34.0469807765681 X_18_0 + 9.40989372947432 X_18_1
      + 44.2246628025585 X_18_2 + 22.8193777303414 X_18_3
      + 33.3450446093569 X_18_4 + 38.7882159940361 X_18_5
      + 56.4090950113543 X_18_6 + 39.1466946241953 X_18_7
      + 32.8115360810798 X_19_0 + 1.24342269562687 X_19_1
      + 35.6401571264774 X_19_2 + 18.0533653372439 X_19_3
      + 23.3472054002187 X_19_4 + 32.2447778717733 X_19_5
      + 48.5467403643128 X_19_6 + 38.7719447539068 X_19_7
      + 34.5542602293842 X_20_0 + 10.7026211742731 X_20_1
      + 28.0110835206352 X_20_2 + 18.1968129077594 X_20_3
      + 13.3526027425368 X_20_4 + 27.8374873147704 X_20_5
      + 41.6123299035274 X_20_6 + 40.9153235353211 X_20_7
      + 38.876688387773 X_21_0 + 20.6771879132536 X_21_1
      + 22.3387734667774 X_21_2 + 23.1586700827142 X_21_3
      + 3.38998525070538 X_21_4 + 26.6481838030287 X_21_5
      + 36.1439621513746 X_21_6 + 45.2201691726159 X_21_7
      + 45.0421680206448 X_22_0 + 30.6683240494162 X_22_1
      + 20.3327519042554 X_22_2 + 30.6842630675726 X_22_3
      + 6.68520755100393 X_22_4 + 29.0744853780768 X_22_5
      + 32.8813929145345 X_22_6 + 51.1435597118542 X_22_7
      + 52.4041687273064 X_23_0 + 40.6638180696304 X_23_1
      + 22.9743509157495 X_23_2 + 39.3284121215185 X_23_3
      + 16.6700929811444 X_23_4 + 34.3587790819173 X_23_5
      + 32.4959382077207 X_23_6 + 58.1933303738495 X_23_7
      + 24.5600671823185 X_24_0 + 12.936232063472 X_24_1
      + 49.6207698448946 X_24_2 + 31.1307564957873 X_24_3
      + 34.978450508849 X_24_4 + 32.7524915082807 X_24_5
      + 51.3457495806615 X_24_6 + 29.3302523003127 X_24_7
      + 22.8165926465807 X_25_0 + 8.96359860770215 X_25_1
      + 42.1499798339216 X_25_2 + 27.8266778469871 X_25_3
      + 25.6260024194177 X_25_4 + 24.6561493343953 X_25_5
      + 42.5580309694892 X_25_6 + 28.8281754538854 X_25_7
      + 25.258600515468 X_26_0 + 13.9048948216087 X_26_1
      + 35.9307778930543 X_26_2 + 27.9199570200242 X_26_3
      + 17.026215081456 X_26_4 + 18.5236524476141 X_26_5
      + 34.4381474530788 X_26_6 + 31.6522305691084 X_26_7
      + 30.9094953048412 X_27_0 + 22.5021354542186 X_27_1
      + 31.7083711344497 X_27_2 + 31.3803122992745 X_27_3
      + 11.0946834114363 X_27_4 + 16.6830962354115 X_27_5
      + 27.5823494285748 X_27_6 + 37.0494763795657 X_27_7
      + 38.377036102336 X_28_0 + 31.9272000025057 X_28_1
      + 30.3285476078232 X_28_2 + 37.2816845112986 X_28_3
      + 12.5016798871192 X_28_4 + 20.335331322602 X_28_5
      + 23.1427310402208 X_28_6 + 44.0847331850835 X_28_7
      + 46.7995395276492 X_29_0 + 41.6214620118035 X_29_1
      + 32.1593034750444 X_29_2 + 44.6668109450406 X_29_3
      + 19.7355516771131 X_29_4 + 27.3628525559745 X_29_5
      + 22.5917241484576 X_29_6 + 52.0985959503709 X_29_7
      + 15.7224966210841 X_30_0 + 21.1221708164668 X_30_1
      + 56.2905036396016 X_30_2 + 40.2184534759854 X_30_3
      + 39.1802501268177 X_30_4 + 28.998718937222 X_30_5
      + 47.8621562406041 X_30_6 + 19.6993324760003 X_30_7
      + 12.8295323375406 X_31_0 + 18.951150360862 X_31_1
      + 49.8299187235942 X_31_2 + 37.7190137728971 X_31_3
      + 31.1173906361057 X_31_4 + 19.3939604000833 X_31_5
      + 38.2829727163396 X_31_6 + 18.9436981606021 X_31_7
      + 16.7927633223362 X_32_0 + 21.7289231210385 X_32_1
      + 44.6925139145249 X_32_2 + 37.7878816553667 X_32_3
      + 24.5253338407452 X_32_4 + 10.5510994687758 X_32_5
      + 28.9894118601948 X_32_6 + 23.0144237381691 X_32_7
      + 24.4825836054939 X_33_0 + 28.0204585972464 X_33_1
      + 41.374156184749 X_33_2 + 40.4119289319379 X_33_3
      + 20.8492685723025 X_33_4 + 6.82097500361935 X_33_5
      + 20.3761134665078 X_33_6 + 30.0077273381374 X_33_7
      + 33.4185113372813 X_34_0 + 36.0297946150127 X_34_1
      + 40.3264280590285 X_34_2 + 45.1478017183561 X_34_3
      + 21.6308113578756 X_34_4 + 13.4805674954729 X_34_5
      + 13.78354090936 X_34_6 + 38.3570554135742 X_34_7
      + 42.8275250277202 X_35_0 + 44.8458035940934 X_35_1
      + 41.7207478360587 X_35_2 + 51.4152117568332 X_35_3
      + 26.4781419287683 X_35_4 + 22.7360000879662 X_35_5
      + 12.8368999372902 X_35_6 + 47.3504350560795 X_35_7
      + 9.54970680178192 X_36_0 + 30.4129265280407 X_36_1
      + 63.8358895919842 X_36_2 + 49.6580708445264 X_36_3
      + 45.2403801929206 X_36_4 + 28.4451349091545 X_36_5
      + 46.3161526899634 X_36_6 + 10.7640001858045 X_36_7
      + 2.93204706647079 X_37_0 + 28.9472986649877 X_37_1
      + 58.2187323805663 X_37_2 + 47.6563112294689 X_37_3
      + 38.4693644345731 X_37_4 + 18.5560151972346 X_37_5
      + 36.3316115800001 X_37_6 + 9.30933402558959 X_37_7
      + 11.2248340744975 X_38_0 + 30.8374139642091 X_38_1
      + 53.8871116316323 X_38_2 + 47.7108373433123 X_38_3
      + 33.3630334352259 X_38_4 + 8.91771831804526 X_38_5
      + 26.3587935991009 X_38_6 + 16.0456754298471 X_38_7
      + 21.0569917129679 X_39_0 + 35.5520196332079 X_39_1
      + 51.1685528425419 X_39_2 + 49.8148973701643 X_39_3
      + 30.7618595016621 X_39_4 + 3.83740797935273 X_39_5
      + 16.4190742735393 X_39_6 + 25.0651890078651 X_39_7
      + 30.9967240204509 X_40_0 + 42.1538384966304 X_40_1
      + 50.3251507697692 X_40_2 + 53.7282421078524 X_40_3
      + 31.2968369008755 X_40_4 + 12.2444150534029 X_40_5
      + 6.66228189136425 X_40_6 + 34.6274991877843 X_40_7
      + 40.9658015910833 X_41_0 + 49.899359715331 X_41_1
      + 51.4492060191409 X_41_2 + 59.0925037547065 X_41_3
      + 34.8237275431565 X_41_4 + 22.0255692321447 X_41_5
      + 4.38018264459371 X_41_6 + 44.3831465761498 X_41_7
      + 11.6274201781823 X_42_0 + 40.0467988733182 X_42_1
      + 71.9820866605019 X_42_2 + 59.2817341176859 X_42_3
      + 52.5194440183824 X_42_4 + 31.2622088151173 X_42_5
      + 46.8997441357626 X_42_6 + 6.60785139058075 X_42_7
      + 7.2523720257582 X_43_0 + 38.945424634994 X_43_1
      + 67.0508821716762 X_43_2 + 57.615310465188 X_43_3
      + 46.8133741573922 X_43_4 + 22.6390304562718 X_43_5
      + 37.0727123367039 X_43_6 + 3.80311714255556 X_43_7
      + 13.0382859302901 X_44_0 + 40.3701139458387 X_44_1
      + 63.3263041713315 X_44_2 + 57.6604197001721 X_44_3
      + 42.7164137071454 X_44_4 + 15.7393043048287 X_44_5
      + 27.3712623019107 X_44_6 + 13.6111608615871 X_44_7
      + 22.0770672871195 X_45_0 + 44.0765935616626 X_45_1
      + 61.0296714721618 X_45_2 + 59.4131635245928 X_45_3
      + 40.7172199443921 X_45_4 + 13.525002772643 X_45_5
      + 17.9996111069101 X_45_6 + 23.5810029472879 X_45_7
      + 31.6985315117278 X_46_0 + 49.5554850647232 X_46_1
      + 60.324296929181 X_46_2 + 62.7305667119308 X_46_3
      + 41.1228890035707 X_46_4 + 17.8360786048952 X_46_5
      + 9.93911464869986 X_46_6 + 33.5687905650472 X_46_7
      + 41.4993602360326 X_47_0 + 56.2916166049617 X_47_1
      + 61.2651679178308 X_47_2 + 67.3819263601153 X_47_3
      + 43.8667527861363 X_47_4 + 25.5602366968696 X_47_5
      + 8.57822825529841 X_47_6 + 43.5621819931004 X_47_7
      + 19.4729787141054 X_48_0 + 49.8251552932853 X_48_1
      + 80.5470098762207 X_48_2 + 69.0124916228939 X_48_3
      + 60.5796335413149 X_48_4 + 36.6814080972909 X_48_5
      + 49.5377229997504 X_48_6 + 13.0944148399232 X_48_7
      + 17.2219888514654 X_49_0 + 48.9443163196709 X_49_1
      + 76.1723099295275 X_49_2 + 67.5864187540663 X_49_3
      + 55.7054036876136 X_49_4 + 29.677023098687 X_49_5
      + 40.358220971693 X_49_6 + 11.927434761926 X_49_7 + 100 Z_0 + 100 Z_1
      + 100 Z_2 + 100 Z_3 + 100 Z_4 + 100 Z_5 + 100 Z_6 + 100 Z_7
Subject To
 c1:  X_0_0 + X_0_1 + X_0_2 + X_0_3 + X_0_4 + X_0_5 + X_0_6 + X_0_7  = 1
 c2:  X_1_0 + X_1_1 + X_1_2 + X_1_3 + X_1_4 + X_1_5 + X_1_6 + X_1_7  = 1
 c3:  X_2_0 + X_2_1 + X_2_2 + X_2_3 + X_2_4 + X_2_5 + X_2_6 + X_2_7  = 1
 c4:  X_3_0 + X_3_1 + X_3_2 + X_3_3 + X_3_4 + X_3_5 + X_3_6 + X_3_7  = 1
 c5:  X_4_0 + X_4_1 + X_4_2 + X_4_3 + X_4_4 + X_4_5 + X_4_6 + X_4_7  = 1
 c6:  X_5_0 + X_5_1 + X_5_2 + X_5_3 + X_5_4 + X_5_5 + X_5_6 + X_5_7  = 1
 c7:  X_6_0 + X_6_1 + X_6_2 + X_6_3 + X_6_4 + X_6_5 + X_6_6 + X_6_7  = 1
 c8:  X_7_0 + X_7_1 + X_7_2 + X_7_3 + X_7_4 + X_7_5 + X_7_6 + X_7_7  = 1
 c9:  X_8_0 + X_8_1 + X_8_2 + X_8_3 + X_8_4 + X_8_5 + X_8_6 + X_8_7  = 1
 c10: X_9_0 + X_9_1 + X_9_2 + X_9_3 + X_9_4 + X_9_5 + X_9_6 + X_9_7  = 1
 c11: X_10_0 + X_10_1 + X_10_2 + X_10_3 + X_10_4 + X_10_5 + X_10_6 + X_10_7
       = 1
 c12: X_11_0 + X_11_1 + X_11_2 + X_11_3 + X_11_4 + X_11_5 + X_11_6 + X_11_7
       = 1
 c13: X_12_0 + X_12_1 + X_12_2 + X_12_3 + X_12_4 + X_12_5 + X_12_6 + X_12_7
       = 1
 c14: X_13_0 + X_13_1 + X_13_2 + X_13_3 + X_13_4 + X_13_5 + X_13_6 + X_13_7
       = 1
 c15: X_14_0 + X_14_1 + X_14_2 + X_14_3 + X_14_4 + X_14_5 + X_14_6 + X_14_7
       = 1
 c16: X_15_0 + X_15_1 + X_15_2 + X_15_3 + X_15_4 + X_15_5 + X_15_6 + X_15_7
       = 1
 c17: X_16_0 + X_16_1 + X_16_2 + X_16_3 + X_16_4 + X_16_5 + X_16_6 + X_16_7
       = 1
 c18: X_17_0 + X_17_1 + X_17_2 + X_17_3 + X_17_4 + X_17_5 + X_17_6 + X_17_7
       = 1
 c19: X_18_0 + X_18_1 + X_18_2 + X_18_3 + X_18_4 + X_18_5 + X_18_6 + X_18_7
       = 1
 c20: X_19_0 + X_19_1 + X_19_2 + X_19_3 + X_19_4 + X_19_5 + X_19_6 + X_19_7
       = 1
 c21: X_20_0 + X_20_1 + X_20_2 + X_20_3 + X_20_4 + X_20_5 + X_20_6 + X_20_7
       = 1
 c22: X_21_0 + X_21_1 + X_21_2 + X_21_3 + X_21_4 + X_21_5 + X_21_6 + X_21_7
       = 1
 c23: X_22_0 + X_22_1 + X_22_2 + X_22_3 + X_22_4 + X_22_5 + X_22_6 + X_22_7
       = 1
 c24: X_23_0 + X_23_1 + X_23_2 + X_23_3 + X_23_4 + X_23_5 + X_23_6 + X_23_7
       = 1
 c25: X_24_0 + X_24_1 + X_24_2 + X_24_3 + X_24_4 + X_24_5 + X_24_6 + X_24_7
       = 1
 c26: X_25_0 + X_25_1 + X_25_2 + X_25_3 + X_25_4 + X_25_5 + X_25_6 + X_25_7
       = 1
 c27: X_26_0 + X_26_1 + X_26_2 + X_26_3 + X_26_4 + X_26_5 + X_26_6 + X_26_7
       = 1
 c28: X_27_0 + X_27_1 + X_27_2 + X_27_3 + X_27_4 + X_27_5 + X_27_6 + X_27_7
       = 1
 c29: X_28_0 + X_28_1 + X_28_2 + X_28_3 + X_28_4 + X_28_5 + X_28_6 + X_28_7
       = 1
 c30: X_29_0 + X_29_1 + X_29_2 + X_29_3 + X_29_4 + X_29_5 + X_29_6 + X_29_7
       = 1
 c31: X_30_0 + X_30_1 + X_30_2 + X_30_3 + X_30_4 + X_30_5 + X_30_6 + X_30_7
       = 1
 c32: X_31_0 + X_31_1 + X_31_2 + X_31_3 + X_31_4 + X_31_5 + X_31_6 + X_31_7
       = 1
 c33: X_32_0 + X_32_1 + X_32_2 + X_32_3 + X_32_4 + X_32_5 + X_32_6 + X_32_7
       = 1
 c34: X_33_0 + X_33_1 + X_33_2 + X_33_3 + X_33_4 + X_33_5 + X_33_6 + X_33_7
       = 1
 c35: X_34_0 + X_34_1 + X_34_2 + X_34_3 + X_34_4 + X_34_5 + X_34_6 + X_34_7
       = 1
 c36: X_35_0 + X_35_1 + X_35_2 + X_35_3 + X_35_4 + X_35_5 + X_35_6 + X_35_7
       = 1
 c37: X_36_0 + X_36_1 + X_36_2 + X_36_3 + X_36_4 + X_36_5 + X_36_6 + X_36_7
       = 1
 c38: X_37_0 + X_37_1 + X_37_2 + X_37_3 + X_37_4 + X_37_5 + X_37_6 + X_37_7
       = 1
 c39: X_38_0 + X_38_1 + X_38_2 + X_38_3 + X_38_4 + X_38_5 + X_38_6 + X_38_7
       = 1
 c40: X_39_0 + X_39_1 + X_39_2 + X_39_3 + X_39_4 + X_39_5 + X_39_6 + X_39_7
       = 1
 c41: X_40_0 + X_40_1 + X_40_2 + X_40_3 + X_40_4 + X_40_5 + X_40_6 + X_40_7
       = 1
 c42: X_41_0 + X_41_1 + X_41_2 + X_41_3 + X_41_4 + X_41_5 + X_41_6 + X_41_7
       = 1
 c43: X_42_0 + X_42_1 + X_42_2 + X_42_3 + X_42_4 + X_42_5 + X_42_6 + X_42_7
       = 1
 c44: X_43_0 + X_43_1 + X_43_2 + X_43_3 + X_43_4 + X_43_5 + X_43_6 + X_43_7
       = 1
 c45: X_44_0 + X_44_1 + X_44_2 + X_44_3 + X_44_4 + X_44_5 + X_44_6 + X_44_7
       = 1
 c46: X_45_0 + X_45_1 + X_45_2 + X_45_3 + X_45_4 + X_45_5 + X_45_6 + X_45_7
       = 1
 c47: X_46_0 + X_46_1 + X_46_2 + X_46_3 + X_46_4 + X_46_5 + X_46_6 + X_46_7
       = 1
 c48: X_47_0 + X_47_1 + X_47_2 + X_47_3 + X_47_4 + X_47_5 + X_47_6 + X_47_7
       = 1
 c49: X_48_0 + X_48_1 + X_48_2 + X_48_3 + X_48_4 + X_48_5 + X_48_6 + X_48_7
       = 1
 c50: X_49_0 + X_49_1 + X_49_2 + X_49_3 + X_49_4 + X_49_5 + X_49_6 + X_49_7
       = 1
 c51: 25 X_0_0 + 25 X_1_0 + 25 X_2_0 + 25 X_3_0 + 25 X_4_0 + 25 X_5_0
      + 25 X_6_0 + 25 X_7_0 + 25 X_8_0 + 25 X_9_0 + 25 X_10_0 + 25 X_11_0
      + 25 X_12_0 + 25 X_13_0 + 25 X_14_0 + 25 X_15_0 + 25 X_16_0 + 25 X_17_0
      + 25 X_18_0 + 25 X_19_0 + 25 X_20_0 + 25 X_21_0 + 25 X_22_0 + 25 X_23_0
      + 25 X_24_0 + 25 X_25_0 + 25 X_26_0 + 25 X_27_0 + 25 X_28_0 + 25 X_29_0
      + 25 X_30_0 + 25 X_31_0 + 25 X_32_0 + 25 X_33_0 + 25 X_34_0 + 25 X_35_0
      + 30 X_36_0 + 30 X_37_0 + 30 X_38_0 + 30 X_39_0 + 30 X_40_0 + 40 X_41_0
      + 40 X_42_0 + 50 X_43_0 + 50 X_44_0 + 40 X_45_0 + 35 X_46_0 + 45 X_47_0
      + 40 X_48_0 + 50 X_49_0 - 200 Z_0 <= 0
 c52: 25 X_0_1 + 25 X_1_1 + 25 X_2_1 + 25 X_3_1 + 25 X_4_1 + 25 X_5_1
      + 25 X_6_1 + 25 X_7_1 + 25 X_8_1 + 25 X_9_1 + 25 X_10_1 + 25 X_11_1
      + 25 X_12_1 + 25 X_13_1 + 25 X_14_1 + 25 X_15_1 + 25 X_16_1 + 25 X_17_1
      + 25 X_18_1 + 25 X_19_1 + 25 X_20_1 + 25 X_21_1 + 25 X_22_1 + 25 X_23_1
      + 25 X_24_1 + 25 X_25_1 + 25 X_26_1 + 25 X_27_1 + 25 X_28_1 + 25 X_29_1
      + 25 X_30_1 + 25 X_31_1 + 25 X_32_1 + 25 X_33_1 + 25 X_34_1 + 25 X_35_1
      + 30 X_36_1 + 30 X_37_1 + 30 X_38_1 + 30 X_39_1 + 30 X_40_1 + 40 X_41_1
      + 40 X_42_1 + 50 X_43_1 + 50 X_44_1 + 40 X_45_1 + 35 X_46_1 + 45 X_47_1
      + 40 X_48_1 + 50 X_49_1 - 200 Z_1 <= 0
 c53: 25 X_0_2 + 25 X_1_2 + 25 X_2_2 + 25 X_3_2 + 25 X_4_2 + 25 X_5_2
      + 25 X_6_2 + 25 X_7_2 + 25 X_8_2 + 25 X_9_2 + 25 X_10_2 + 25 X_11_2
      + 25 X_12_2 + 25 X_13_2 + 25 X_14_2 + 25 X_15_2 + 25 X_16_2 + 25 X_17_2
      + 25 X_18_2 + 25 X_19_2 + 25 X_20_2 + 25 X_21_2 + 25 X_22_2 + 25 X_23_2
      + 25 X_24_2 + 25 X_25_2 + 25 X_26_2 + 25 X_27_2 + 25 X_28_2 + 25 X_29_2
      + 25 X_30_2 + 25 X_31_2 + 25 X_32_2 + 25 X_33_2 + 25 X_34_2 + 25 X_35_2
      + 30 X_36_2 + 30 X_37_2 + 30 X_38_2 + 30 X_39_2 + 30 X_40_2 + 40 X_41_2
      + 40 X_42_2 + 50 X_43_2 + 50 X_44_2 + 40 X_45_2 + 35 X_46_2 + 45 X_47_2
      + 40 X_48_2 + 50 X_49_2 - 200 Z_2 <= 0
 c54: 25 X_0_3 + 25 X_1_3 + 25 X_2_3 + 25 X_3_3 + 25 X_4_3 + 25 X_5_3
      + 25 X_6_3 + 25 X_7_3 + 25 X_8_3 + 25 X_9_3 + 25 X_10_3 + 25 X_11_3
      + 25 X_12_3 + 25 X_13_3 + 25 X_14_3 + 25 X_15_3 + 25 X_16_3 + 25 X_17_3
      + 25 X_18_3 + 25 X_19_3 + 25 X_20_3 + 25 X_21_3 + 25 X_22_3 + 25 X_23_3
      + 25 X_24_3 + 25 X_25_3 + 25 X_26_3 + 25 X_27_3 + 25 X_28_3 + 25 X_29_3
      + 25 X_30_3 + 25 X_31_3 + 25 X_32_3 + 25 X_33_3 + 25 X_34_3 + 25 X_35_3
      + 30 X_36_3 + 30 X_37_3 + 30 X_38_3 + 30 X_39_3 + 30 X_40_3 + 40 X_41_3
      + 40 X_42_3 + 50 X_43_3 + 50 X_44_3 + 40 X_45_3 + 35 X_46_3 + 45 X_47_3
      + 40 X_48_3 + 50 X_49_3 - 200 Z_3 <= 0
 c55: 25 X_0_4 + 25 X_1_4 + 25 X_2_4 + 25 X_3_4 + 25 X_4_4 + 25 X_5_4
      + 25 X_6_4 + 25 X_7_4 + 25 X_8_4 + 25 X_9_4 + 25 X_10_4 + 25 X_11_4
      + 25 X_12_4 + 25 X_13_4 + 25 X_14_4 + 25 X_15_4 + 25 X_16_4 + 25 X_17_4
      + 25 X_18_4 + 25 X_19_4 + 25 X_20_4 + 25 X_21_4 + 25 X_22_4 + 25 X_23_4
      + 25 X_24_4 + 25 X_25_4 + 25 X_26_4 + 25 X_27_4 + 25 X_28_4 + 25 X_29_4
      + 25 X_30_4 + 25 X_31_4 + 25 X_32_4 + 25 X_33_4 + 25 X_34_4 + 25 X_35_4
      + 30 X_36_4 + 30 X_37_4 + 30 X_38_4 + 30 X_39_4 + 30 X_40_4 + 40 X_41_4
      + 40 X_42_4 + 50 X_43_4 + 50 X_44_4 + 40 X_45_4 + 35 X_46_4 + 45 X_47_4
      + 40 X_48_4 + 50 X_49_4 - 200 Z_4 <= 0
 c56: 25 X_0_5 + 25 X_1_5 + 25 X_2_5 + 25 X_3_5 + 25 X_4_5 + 25 X_5_5
      + 25 X_6_5 + 25 X_7_5 + 25 X_8_5 + 25 X_9_5 + 25 X_10_5 + 25 X_11_5
      + 25 X_12_5 + 25 X_13_5 + 25 X_14_5 + 25 X_15_5 + 25 X_16_5 + 25 X_17_5
      + 25 X_18_5 + 25 X_19_5 + 25 X_20_5 + 25 X_21_5 + 25 X_22_5 + 25 X_23_5
      + 25 X_24_5 + 25 X_25_5 + 25 X_26_5 + 25 X_27_5 + 25 X_28_5 + 25 X_29_5
      + 25 X_30_5 + 25 X_31_5 + 25 X_32_5 + 25 X_33_5 + 25 X_34_5 + 25 X_35_5
      + 30 X_36_5 + 30 X_37_5 + 30 X_38_5 + 30 X_39_5 + 30 X_40_5 + 40 X_41_5
      + 40 X_42_5 + 50 X_43_5 + 50 X_44_5 + 40 X_45_5 + 35 X_46_5 + 45 X_47_5
      + 40 X_48_5 + 50 X_49_5 - 200 Z_5 <= 0
 c57: 25 X_0_6 + 25 X_1_6 + 25 X_2_6 + 25 X_3_6 + 25 X_4_6 + 25 X_5_6
      + 25 X_6_6 + 25 X_7_6 + 25 X_8_6 + 25 X_9_6 + 25 X_10_6 + 25 X_11_6
      + 25 X_12_6 + 25 X_13_6 + 25 X_14_6 + 25 X_15_6 + 25 X_16_6 + 25 X_17_6
      + 25 X_18_6 + 25 X_19_6 + 25 X_20_6 + 25 X_21_6 + 25 X_22_6 + 25 X_23_6
      + 25 X_24_6 + 25 X_25_6 + 25 X_26_6 + 25 X_27_6 + 25 X_28_6 + 25 X_29_6
      + 25 X_30_6 + 25 X_31_6 + 25 X_32_6 + 25 X_33_6 + 25 X_34_6 + 25 X_35_6
      + 30 X_36_6 + 30 X_37_6 + 30 X_38_6 + 30 X_39_6 + 30 X_40_6 + 40 X_41_6
      + 40 X_42_6 + 50 X_43_6 + 50 X_44_6 + 40 X_45_6 + 35 X_46_6 + 45 X_47_6
      + 40 X_48_6 + 50 X_49_6 - 200 Z_6 <= 0
 c58: 25 X_0_7 + 25 X_1_7 + 25 X_2_7 + 25 X_3_7 + 25 X_4_7 + 25 X_5_7
      + 25 X_6_7 + 25 X_7_7 + 25 X_8_7 + 25 X_9_7 + 25 X_10_7 + 25 X_11_7
      + 25 X_12_7 + 25 X_13_7 + 25 X_14_7 + 25 X_15_7 + 25 X_16_7 + 25 X_17_7
      + 25 X_18_7 + 25 X_19_7 + 25 X_20_7 + 25 X_21_7 + 25 X_22_7 + 25 X_23_7
      + 25 X_24_7 + 25 X_25_7 + 25 X_26_7 + 25 X_27_7 + 25 X_28_7 + 25 X_29_7
      + 25 X_30_7 + 25 X_31_7 + 25 X_32_7 + 25 X_33_7 + 25 X_34_7 + 25 X_35_7
      + 30 X_36_7 + 30 X_37_7 + 30 X_38_7 + 30 X_39_7 + 30 X_40_7 + 40 X_41_7
      + 40 X_42_7 + 50 X_43_7 + 50 X_44_7 + 40 X_45_7 + 35 X_46_7 + 45 X_47_7
      + 40 X_48_7 + 50 X_49_7 - 200 Z_7 <= 0
Bounds
 0 <= X_0_0 <= 1
 0 <= X_0_1 <= 1
 0 <= X_0_2 <= 1
 0 <= X_0_3 <= 1
 0 <= X_0_4 <= 1
 0 <= X_0_5 <= 1
 0 <= X_0_6 <= 1
 0 <= X_0_7 <= 1
 0 <= X_1_0 <= 1
 0 <= X_1_1 <= 1
 0 <= X_1_2 <= 1
 0 <= X_1_3 <= 1
 0 <= X_1_4 <= 1
 0 <= X_1_5 <= 1
 0 <= X_1_6 <= 1
 0 <= X_1_7 <= 1
 0 <= X_2_0 <= 1
 0 <= X_2_1 <= 1
 0 <= X_2_2 <= 1
 0 <= X_2_3 <= 1
 0 <= X_2_4 <= 1
 0 <= X_2_5 <= 1
 0 <= X_2_6 <= 1
 0 <= X_2_7 <= 1
 0 <= X_3_0 <= 1
 0 <= X_3_1 <= 1
 0 <= X_3_2 <= 1
 0 <= X_3_3 <= 1
 0 <= X_3_4 <= 1
 0 <= X_3_5 <= 1
 0 <= X_3_6 <= 1
 0 <= X_3_7 <= 1
 0 <= X_4_0 <= 1
 0 <= X_4_1 <= 1
 0 <= X_4_2 <= 1
 0 <= X_4_3 <= 1
 0 <= X_4_4 <= 1
 0 <= X_4_5 <= 1
 0 <= X_4_6 <= 1
 0 <= X_4_7 <= 1
 0 <= X_5_0 <= 1
 0 <= X_5_1 <= 1
 0 <= X_5_2 <= 1
 0 <= X_5_3 <= 1
 0 <= X_5_4 <= 1
 0 <= X_5_5 <= 1
 0 <= X_5_6 <= 1
 0 <= X_5_7 <= 1
 0 <= X_6_0 <= 1
 0 <= X_6_1 <= 1
 0 <= X_6_2 <= 1
 0 <= X_6_3 <= 1
 0 <= X_6_4 <= 1
 0 <= X_6_5 <= 1
 0 <= X_6_6 <= 1
 0 <= X_6_7 <= 1
 0 <= X_7_0 <= 1
 0 <= X_7_1 <= 1
 0 <= X_7_2 <= 1
 0 <= X_7_3 <= 1
 0 <= X_7_4 <= 1
 0 <= X_7_5 <= 1
 0 <= X_7_6 <= 1
 0 <= X_7_7 <= 1
 0 <= X_8_0 <= 1
 0 <= X_8_1 <= 1
 0 <= X_8_2 <= 1
 0 <= X_8_3 <= 1
 0 <= X_8_4 <= 1
 0 <= X_8_5 <= 1
 0 <= X_8_6 <= 1
 0 <= X_8_7 <= 1
 0 <= X_9_0 <= 1
 0 <= X_9_1 <= 1
 0 <= X_9_2 <= 1
 0 <= X_9_3 <= 1
 0 <= X_9_4 <= 1
 0 <= X_9_5 <= 1
 0 <= X_9_6 <= 1
 0 <= X_9_7 <= 1
 0 <= X_10_0 <= 1
 0 <= X_10_1 <= 1
 0 <= X_10_2 <= 1
 0 <= X_10_3 <= 1
 0 <= X_10_4 <= 1
 0 <= X_10_5 <= 1
 0 <= X_10_6 <= 1
 0 <= X_10_7 <= 1
 0 <= X_11_0 <= 1
 0 <= X_11_1 <= 1
 0 <= X_11_2 <= 1
 0 <= X_11_3 <= 1
 0 <= X_11_4 <= 1
 0 <= X_11_5 <= 1
 0 <= X_11_6 <= 1
 0 <= X_11_7 <= 1
 0 <= X_12_0 <= 1
 0 <= X_12_1 <= 1
 0 <= X_12_2 <= 1
 0 <= X_12_3 <= 1
 0 <= X_12_4 <= 1
 0 <= X_12_5 <= 1
 0 <= X_12_6 <= 1
 0 <= X_12_7 <= 1
 0 <= X_13_0 <= 1
 0 <= X_13_1 <= 1
 0 <= X_13_2 <= 1
 0 <= X_13_3 <= 1
 0 <= X_13_4 <= 1
 0 <= X_13_5 <= 1
 0 <= X_13_6 <= 1
 0 <= X_13_7 <= 1
 0 <= X_14_0 <= 1
 0 <= X_14_1 <= 1
 0 <= X_14_2 <= 1
 0 <= X_14_3 <= 1
 0 <= X_14_4 <= 1
 0 <= X_14_5 <= 1
 0 <= X_14_6 <= 1
 0 <= X_14_7 <= 1
 0 <= X_15_0 <= 1
 0 <= X_15_1 <= 1
 0 <= X_15_2 <= 1
 0 <= X_15_3 <= 1
 0 <= X_15_4 <= 1
 0 <= X_15_5 <= 1
 0 <= X_15_6 <= 1
 0 <= X_15_7 <= 1
 0 <= X_16_0 <= 1
 0 <= X_16_1 <= 1
 0 <= X_16_2 <= 1
 0 <= X_16_3 <= 1
 0 <= X_16_4 <= 1
 0 <= X_16_5 <= 1
 0 <= X_16_6 <= 1
 0 <= X_16_7 <= 1
 0 <= X_17_0 <= 1
 0 <= X_17_1 <= 1
 0 <= X_17_2 <= 1
 0 <= X_17_3 <= 1
 0 <= X_17_4 <= 1
 0 <= X_17_5 <= 1
 0 <= X_17_6 <= 1
 0 <= X_17_7 <= 1
 0 <= X_18_0 <= 1
 0 <= X_18_1 <= 1
 0 <= X_18_2 <= 1
 0 <= X_18_3 <= 1
 0 <= X_18_4 <= 1
 0 <= X_18_5 <= 1
 0 <= X_18_6 <= 1
 0 <= X_18_7 <= 1
 0 <= X_19_0 <= 1
 0 <= X_19_1 <= 1
 0 <= X_19_2 <= 1
 0 <= X_19_3 <= 1
 0 <= X_19_4 <= 1
 0 <= X_19_5 <= 1
 0 <= X_19_6 <= 1
 0 <= X_19_7 <= 1
 0 <= X_20_0 <= 1
 0 <= X_20_1 <= 1
 0 <= X_20_2 <= 1
 0 <= X_20_3 <= 1
 0 <= X_20_4 <= 1
 0 <= X_20_5 <= 1
 0 <= X_20_6 <= 1
 0 <= X_20_7 <= 1
 0 <= X_21_0 <= 1
 0 <= X_21_1 <= 1
 0 <= X_21_2 <= 1
 0 <= X_21_3 <= 1
 0 <= X_21_4 <= 1
 0 <= X_21_5 <= 1
 0 <= X_21_6 <= 1
 0 <= X_21_7 <= 1
 0 <= X_22_0 <= 1
 0 <= X_22_1 <= 1
 0 <= X_22_2 <= 1
 0 <= X_22_3 <= 1
 0 <= X_22_4 <= 1
 0 <= X_22_5 <= 1
 0 <= X_22_6 <= 1
 0 <= X_22_7 <= 1
 0 <= X_23_0 <= 1
 0 <= X_23_1 <= 1
 0 <= X_23_2 <= 1
 0 <= X_23_3 <= 1
 0 <= X_23_4 <= 1
 0 <= X_23_5 <= 1
 0 <= X_23_6 <= 1
 0 <= X_23_7 <= 1
 0 <= X_24_0 <= 1
 0 <= X_24_1 <= 1
 0 <= X_24_2 <= 1
 0 <= X_24_3 <= 1
 0 <= X_24_4 <= 1
 0 <= X_24_5 <= 1
 0 <= X_24_6 <= 1
 0 <= X_24_7 <= 1
 0 <= X_25_0 <= 1
 0 <= X_25_1 <= 1
 0 <= X_25_2 <= 1
 0 <= X_25_3 <= 1
 0 <= X_25_4 <= 1
 0 <= X_25_5 <= 1
 0 <= X_25_6 <= 1
 0 <= X_25_7 <= 1
 0 <= X_26_0 <= 1
 0 <= X_26_1 <= 1
 0 <= X_26_2 <= 1
 0 <= X_26_3 <= 1
 0 <= X_26_4 <= 1
 0 <= X_26_5 <= 1
 0 <= X_26_6 <= 1
 0 <= X_26_7 <= 1
 0 <= X_27_0 <= 1
 0 <= X_27_1 <= 1
 0 <= X_27_2 <= 1
 0 <= X_27_3 <= 1
 0 <= X_27_4 <= 1
 0 <= X_27_5 <= 1
 0 <= X_27_6 <= 1
 0 <= X_27_7 <= 1
 0 <= X_28_0 <= 1
 0 <= X_28_1 <= 1
 0 <= X_28_2 <= 1
 0 <= X_28_3 <= 1
 0 <= X_28_4 <= 1
 0 <= X_28_5 <= 1
 0 <= X_28_6 <= 1
 0 <= X_28_7 <= 1
 0 <= X_29_0 <= 1
 0 <= X_29_1 <= 1
 0 <= X_29_2 <= 1
 0 <= X_29_3 <= 1
 0 <= X_29_4 <= 1
 0 <= X_29_5 <= 1
 0 <= X_29_6 <= 1
 0 <= X_29_7 <= 1
 0 <= X_30_0 <= 1
 0 <= X_30_1 <= 1
 0 <= X_30_2 <= 1
 0 <= X_30_3 <= 1
 0 <= X_30_4 <= 1
 0 <= X_30_5 <= 1
 0 <= X_30_6 <= 1
 0 <= X_30_7 <= 1
 0 <= X_31_0 <= 1
 0 <= X_31_1 <= 1
 0 <= X_31_2 <= 1
 0 <= X_31_3 <= 1
 0 <= X_31_4 <= 1
 0 <= X_31_5 <= 1
 0 <= X_31_6 <= 1
 0 <= X_31_7 <= 1
 0 <= X_32_0 <= 1
 0 <= X_32_1 <= 1
 0 <= X_32_2 <= 1
 0 <= X_32_3 <= 1
 0 <= X_32_4 <= 1
 0 <= X_32_5 <= 1
 0 <= X_32_6 <= 1
 0 <= X_32_7 <= 1
 0 <= X_33_0 <= 1
 0 <= X_33_1 <= 1
 0 <= X_33_2 <= 1
 0 <= X_33_3 <= 1
 0 <= X_33_4 <= 1
 0 <= X_33_5 <= 1
 0 <= X_33_6 <= 1
 0 <= X_33_7 <= 1
 0 <= X_34_0 <= 1
 0 <= X_34_1 <= 1
 0 <= X_34_2 <= 1
 0 <= X_34_3 <= 1
 0 <= X_34_4 <= 1
 0 <= X_34_5 <= 1
 0 <= X_34_6 <= 1
 0 <= X_34_7 <= 1
 0 <= X_35_0 <= 1
 0 <= X_35_1 <= 1
 0 <= X_35_2 <= 1
 0 <= X_35_3 <= 1
 0 <= X_35_4 <= 1
 0 <= X_35_5 <= 1
 0 <= X_35_6 <= 1
 0 <= X_35_7 <= 1
 0 <= X_36_0 <= 1
 0 <= X_36_1 <= 1
 0 <= X_36_2 <= 1
 0 <= X_36_3 <= 1
 0 <= X_36_4 <= 1
 0 <= X_36_5 <= 1
 0 <= X_36_6 <= 1
 0 <= X_36_7 <= 1
 0 <= X_37_0 <= 1
 0 <= X_37_1 <= 1
 0 <= X_37_2 <= 1
 0 <= X_37_3 <= 1
 0 <= X_37_4 <= 1
 0 <= X_37_5 <= 1
 0 <= X_37_6 <= 1
 0 <= X_37_7 <= 1
 0 <= X_38_0 <= 1
 0 <= X_38_1 <= 1
 0 <= X_38_2 <= 1
 0 <= X_38_3 <= 1
 0 <= X_38_4 <= 1
 0 <= X_38_5 <= 1
 0 <= X_38_6 <= 1
 0 <= X_38_7 <= 1
 0 <= X_39_0 <= 1
 0 <= X_39_1 <= 1
 0 <= X_39_2 <= 1
 0 <= X_39_3 <= 1
 0 <= X_39_4 <= 1
 0 <= X_39_5 <= 1
 0 <= X_39_6 <= 1
 0 <= X_39_7 <= 1
 0 <= X_40_0 <= 1
 0 <= X_40_1 <= 1
 0 <= X_40_2 <= 1
 0 <= X_40_3 <= 1
 0 <= X_40_4 <= 1
 0 <= X_40_5 <= 1
 0 <= X_40_6 <= 1
 0 <= X_40_7 <= 1
 0 <= X_41_0 <= 1
 0 <= X_41_1 <= 1
 0 <= X_41_2 <= 1
 0 <= X_41_3 <= 1
 0 <= X_41_4 <= 1
 0 <= X_41_5 <= 1
 0 <= X_41_6 <= 1
 0 <= X_41_7 <= 1
 0 <= X_42_0 <= 1
 0 <= X_42_1 <= 1
 0 <= X_42_2 <= 1
 0 <= X_42_3 <= 1
 0 <= X_42_4 <= 1
 0 <= X_42_5 <= 1
 0 <= X_42_6 <= 1
 0 <= X_42_7 <= 1
 0 <= X_43_0 <= 1
 0 <= X_43_1 <= 1
 0 <= X_43_2 <= 1
 0 <= X_43_3 <= 1
 0 <= X_43_4 <= 1
 0 <= X_43_5 <= 1
 0 <= X_43_6 <= 1
 0 <= X_43_7 <= 1
 0 <= X_44_0 <= 1
 0 <= X_44_1 <= 1
 0 <= X_44_2 <= 1
 0 <= X_44_3 <= 1
 0 <= X_44_4 <= 1
 0 <= X_44_5 <= 1
 0 <= X_44_6 <= 1
 0 <= X_44_7 <= 1
 0 <= X_45_0 <= 1
 0 <= X_45_1 <= 1
 0 <= X_45_2 <= 1
 0 <= X_45_3 <= 1
 0 <= X_45_4 <= 1
 0 <= X_45_5 <= 1
 0 <= X_45_6 <= 1
 0 <= X_45_7 <= 1
 0 <= X_46_0 <= 1
 0 <= X_46_1 <= 1
 0 <= X_46_2 <= 1
 0 <= X_46_3 <= 1
 0 <= X_46_4 <= 1
 0 <= X_46_5 <= 1
 0 <= X_46_6 <= 1
 0 <= X_46_7 <= 1
 0 <= X_47_0 <= 1
 0 <= X_47_1 <= 1
 0 <= X_47_2 <= 1
 0 <= X_47_3 <= 1
 0 <= X_47_4 <= 1
 0 <= X_47_5 <= 1
 0 <= X_47_6 <= 1
 0 <= X_47_7 <= 1
 0 <= X_48_0 <= 1
 0 <= X_48_1 <= 1
 0 <= X_48_2 <= 1
 0 <= X_48_3 <= 1
 0 <= X_48_4 <= 1
 0 <= X_48_5 <= 1
 0 <= X_48_6 <= 1
 0 <= X_48_7 <= 1
 0 <= X_49_0 <= 1
 0 <= X_49_1 <= 1
 0 <= X_49_2 <= 1
 0 <= X_49_3 <= 1
 0 <= X_49_4 <= 1
 0 <= X_49_5 <= 1
 0 <= X_49_6 <= 1
 0 <= X_49_7 <= 1
 0 <= Z_0 <= 1
 0 <= Z_1 <= 1
 0 <= Z_2 <= 1
 0 <= Z_3 <= 1
 0 <= Z_4 <= 1
 0 <= Z_5 <= 1
 0 <= Z_6 <= 1
 0 <= Z_7 <= 1
Generals
 X_0_0  X_0_1  X_0_2  X_0_3  X_0_4  X_0_5  X_0_6  X_0_7  X_1_0  X_1_1  X_1_2 
 X_1_3  X_1_4  X_1_5  X_1_6  X_1_7  X_2_0  X_2_1  X_2_2  X_2_3  X_2_4  X_2_5 
 X_2_6  X_2_7  X_3_0  X_3_1  X_3_2  X_3_3  X_3_4  X_3_5  X_3_6  X_3_7  X_4_0 
 X_4_1  X_4_2  X_4_3  X_4_4  X_4_5  X_4_6  X_4_7  X_5_0  X_5_1  X_5_2  X_5_3 
 X_5_4  X_5_5  X_5_6  X_5_7  X_6_0  X_6_1  X_6_2  X_6_3  X_6_4  X_6_5  X_6_6 
 X_6_7  X_7_0  X_7_1  X_7_2  X_7_3  X_7_4  X_7_5  X_7_6  X_7_7  X_8_0  X_8_1 
 X_8_2  X_8_3  X_8_4  X_8_5  X_8_6  X_8_7  X_9_0  X_9_1  X_9_2  X_9_3  X_9_4 
 X_9_5  X_9_6  X_9_7  X_10_0  X_10_1  X_10_2  X_10_3  X_10_4  X_10_5  X_10_6 
 X_10_7  X_11_0  X_11_1  X_11_2  X_11_3  X_11_4  X_11_5  X_11_6  X_11_7 
 X_12_0  X_12_1  X_12_2  X_12_3  X_12_4  X_12_5  X_12_6  X_12_7  X_13_0 
 X_13_1  X_13_2  X_13_3  X_13_4  X_13_5  X_13_6  X_13_7  X_14_0  X_14_1 
 X_14_2  X_14_3  X_14_4  X_14_5  X_14_6  X_14_7  X_15_0  X_15_1  X_15_2 
 X_15_3  X_15_4  X_15_5  X_15_6  X_15_7  X_16_0  X_16_1  X_16_2  X_16_3 
 X_16_4  X_16_5  X_16_6  X_16_7  X_17_0  X_17_1  X_17_2  X_17_3  X_17_4 
 X_17_5  X_17_6  X_17_7  X_18_0  X_18_1  X_18_2  X_18_3  X_18_4  X_18_5 
 X_18_6  X_18_7  X_19_0  X_19_1  X_19_2  X_19_3  X_19_4  X_19_5  X_19_6 
 X_19_7  X_20_0  X_20_1  X_20_2  X_20_3  X_20_4  X_20_5  X_20_6  X_20_7 
 X_21_0  X_21_1  X_21_2  X_21_3  X_21_4  X_21_5  X_21_6  X_21_7  X_22_0 
 X_22_1  X_22_2  X_22_3  X_22_4  X_22_5  X_22_6  X_22_7  X_23_0  X_23_1 
 X_23_2  X_23_3  X_23_4  X_23_5  X_23_6  X_23_7  X_24_0  X_24_1  X_24_2 
 X_24_3  X_24_4  X_24_5  X_24_6  X_24_7  X_25_0  X_25_1  X_25_2  X_25_3 
 X_25_4  X_25_5  X_25_6  X_25_7  X_26_0  X_26_1  X_26_2  X_26_3  X_26_4 
 X_26_5  X_26_6  X_26_7  X_27_0  X_27_1  X_27_2  X_27_3  X_27_4  X_27_5 
 X_27_6  X_27_7  X_28_0  X_28_1  X_28_2  X_28_3  X_28_4  X_28_5  X_28_6 
 X_28_7  X_29_0  X_29_1  X_29_2  X_29_3  X_29_4  X_29_5  X_29_6  X_29_7 
 X_30_0  X_30_1  X_30_2  X_30_3  X_30_4  X_30_5  X_30_6  X_30_7  X_31_0 
 X_31_1  X_31_2  X_31_3  X_31_4  X_31_5  X_31_6  X_31_7  X_32_0  X_32_1 
 X_32_2  X_32_3  X_32_4  X_32_5  X_32_6  X_32_7  X_33_0  X_33_1  X_33_2 
 X_33_3  X_33_4  X_33_5  X_33_6  X_33_7  X_34_0  X_34_1  X_34_2  X_34_3 
 X_34_4  X_34_5  X_34_6  X_34_7  X_35_0  X_35_1  X_35_2  X_35_3  X_35_4 
 X_35_5  X_35_6  X_35_7  X_36_0  X_36_1  X_36_2  X_36_3  X_36_4  X_36_5 
 X_36_6  X_36_7  X_37_0  X_37_1  X_37_2  X_37_3  X_37_4  X_37_5  X_37_6 
 X_37_7  X_38_0  X_38_1  X_38_2  X_38_3  X_38_4  X_38_5  X_38_6  X_38_7 
 X_39_0  X_39_1  X_39_2  X_39_3  X_39_4  X_39_5  X_39_6  X_39_7  X_40_0 
 X_40_1  X_40_2  X_40_3  X_40_4  X_40_5  X_40_6  X_40_7  X_41_0  X_41_1 
 X_41_2  X_41_3  X_41_4  X_41_5  X_41_6  X_41_7  X_42_0  X_42_1  X_42_2 
 X_42_3  X_42_4  X_42_5  X_42_6  X_42_7  X_43_0  X_43_1  X_43_2  X_43_3 
 X_43_4  X_43_5  X_43_6  X_43_7  X_44_0  X_44_1  X_44_2  X_44_3  X_44_4 
 X_44_5  X_44_6  X_44_7  X_45_0  X_45_1  X_45_2  X_45_3  X_45_4  X_45_5 
 X_45_6  X_45_7  X_46_0  X_46_1  X_46_2  X_46_3  X_46_4  X_46_5  X_46_6 
 X_46_7  X_47_0  X_47_1  X_47_2  X_47_3  X_47_4  X_47_5  X_47_6  X_47_7 
 X_48_0  X_48_1  X_48_2  X_48_3  X_48_4  X_48_5  X_48_6  X_48_7  X_49_0 
 X_49_1  X_49_2  X_49_3  X_49_4  X_49_5  X_49_6  X_49_7  Z_0  Z_1  Z_2  Z_3 
 Z_4  Z_5  Z_6  Z_7 
End
